p cnf 28 31
-16 4 -18 0
-10 -8 -21 -18 15 0
17 -12 -10 22 0
17 11 -12 -18 0
9 -12 23 15 0
11 -5 6 -10 0
-16 9 -10 15 0
1 -8 25 10 -2 -17 0
3 -12 -10 -8 25 -20 15 0
-16 1 -13 -12 21 -25 -2 0
1 3 9 13 -17 -10 -8 25 0
3 20 -25 -8 -23 0
-14 3 5 26 -4 13 0
-20 21 -26 7 0
1 -26 8 9 -22 11 -6 -2 0
-6 27 5 7 0
25 -4 -27 14 0
-14 -4 -27 -25 0
-16 11 28 0
17 2 -28 20 0
17 -28 -20 -2 0
1 3 -28 21 25 12 0
1 3 -28 21 25 -2 0
-14 29 9 13 15 0
-6 -29 -19 0
-23 -13 14 0
17 13 21 7 -19 0
2 19 -1 0
17 28 15 0
8 -7 -28 0
-3 0
